Traveling Salesman Problem/TSP_generados/Aleatorio1620390907_8.tsp
NAME: Aleatorio1620390907_8.tsp
COMMENT: Randomly generated scenario
TYPE: TSP
DIMENSION: 8
EDGE_WEIGHT_TYPE: ATT
NODE_COORD_SECTION
1 27.39 0.79
2 46.2 4.35
3 25.12 25.87
4 17.88 44.56
5 46.4 38.75
6 29.91 9.42
7 12.34 2.37
8 47.79 1.99
