Traveling Salesman Problem/TSP_generados/Aleatorio1620390907_8.opt.tour
NAME: Aleatorio1620390907_8.opt.tour
COMMENT: Optimal solution for Aleatorio1620390907_8 (156.63102776658474)
TYPE: TOUR
DIMENSION: 8
TOUR_SECTION
1 6 8 2 5 4 3 7
-1
EOF
